param sigma
: 1   2 :=
1 0.00001 0.99999
2 0.10000 0.90000
3 0.20000 0.80000
4 0.30000 0.70000
5 0.40000 0.60000
6 0.50000 0.50000
7 0.90000 0.10000
8 0.80000 0.20000
9 0.70000 0.30000
10 0.60000 0.40000
11 0.99999 0.00001
;

set S:=
1 2 3 4 5 6 7 8 9 10 11 12 13 14 15 16 17 18 19 20 21 22 23 24 25 26 27 28 29 30 31 32 33 34 35 36 37 38 39 40 41 42 43 44 45 46 47 48 49 50 51 52 53 54 55 56 57 58 59 60 61 62 63 64 65 66 67 68 69 70 71 72 73 74 75 76 77 78 79 80 81 82 83 84 ;

set C:=
1 2 3 4 5 6 7 8 9 10 11 12 ;

set A:=
1 2 3 4 5 6 7 8 9 10 11 12 13 14 15 16 17 18 19 20 21 22 23 24 ;

set T:=
1_1_2 1_3_4 1_5_6 1_7_8 1_9_10 
2_1_2 2_3_4 2_5_6 2_7_8 2_9_10 
;

set R:=
1 2 3 4 5 ;

set Ac[1]:=
1 2 ;
set Ac[2]:=
3 4 ;
set Ac[3]:=
5 6 ;
set Ac[4]:=
7 8 ;
set Ac[5]:=
9 10 ;
set Ac[6]:=
11 12 ;
set Ac[7]:=
13 14 ;
set Ac[8]:=
15 16 ;
set Ac[9]:=
17 18 ;
set Ac[10]:=
19 20 ;
set Ac[11]:=
21 22 ;
set Ac[12]:=
23 24 ;

set Cs[1]:=
2 10 11 3 12 9 ;
set Cs[2]:=
1 9 12 5 10 6 3 ;
set Cs[3]:=
10 5 11 6 2 9 ;
set Cs[4]:=
9 1 2 4 11 7 ;
set Cs[5]:=
8 9 1 10 6 12 2 ;
set Cs[6]:=
1 10 11 9 8 3 5 ;
set Cs[7]:=
10 9 3 1 6 5 ;
set Cs[8]:=
6 1 5 10 3 11 7 ;
set Cs[9]:=
10 5 3 6 8 1 12 ;
set Cs[10]:=
10 9 3 1 11 ;
set Cs[11]:=
1 7 12 11 2 3 9 ;
set Cs[12]:=
4 11 2 3 6 5 ;
set Cs[13]:=
2 6 11 10 9 12 3 ;
set Cs[14]:=
12 6 5 3 1 10 2 ;
set Cs[15]:=
1 4 10 12 7 ;
set Cs[16]:=
3 2 4 9 6 ;
set Cs[17]:=
4 10 2 1 3 12 ;
set Cs[18]:=
5 11 2 6 12 9 ;
set Cs[19]:=
2 11 5 9 1 ;
set Cs[20]:=
10 6 5 3 2 9 1 ;
set Cs[21]:=
12 1 3 8 6 9 10 ;
set Cs[22]:=
6 3 9 10 1 8 12 ;
set Cs[23]:=
6 1 2 12 5 4 11 ;
set Cs[24]:=
3 9 10 8 1 ;
set Cs[25]:=
7 11 1 6 10 2 9 ;
set Cs[26]:=
11 5 10 3 9 ;
set Cs[27]:=
5 9 2 6 7 3 ;
set Cs[28]:=
7 6 1 11 8 5 ;
set Cs[29]:=
5 11 10 1 4 9 8 ;
set Cs[30]:=
10 1 8 9 11 2 5 ;
set Cs[31]:=
9 4 2 1 3 5 8 ;
set Cs[32]:=
9 1 10 5 6 2 ;
set Cs[33]:=
3 10 1 5 9 12 7 ;
set Cs[34]:=
8 5 2 1 9 6 ;
set Cs[35]:=
9 5 1 3 6 8 2 ;
set Cs[36]:=
3 9 2 8 6 5 12 ;
set Cs[37]:=
3 7 11 1 2 ;
set Cs[38]:=
4 6 3 11 10 2 1 ;
set Cs[39]:=
5 12 10 9 11 6 ;
set Cs[40]:=
10 6 5 3 1 11 4 ;
set Cs[41]:=
3 1 11 8 2 5 10 ;
set Cs[42]:=
2 1 6 10 11 ;
set Cs[43]:=
10 3 11 6 9 5 2 ;
set Cs[44]:=
1 9 7 10 11 ;
set Cs[45]:=
10 4 1 5 9 ;
set Cs[46]:=
1 7 10 2 11 6 3 ;
set Cs[47]:=
4 1 11 2 12 ;
set Cs[48]:=
5 10 4 12 9 ;
set Cs[49]:=
6 5 9 10 1 3 ;
set Cs[50]:=
1 11 9 12 6 2 ;
set Cs[51]:=
3 8 6 10 11 12 5 ;
set Cs[52]:=
10 2 6 11 9 3 ;
set Cs[53]:=
12 9 1 4 2 ;
set Cs[54]:=
6 3 2 1 8 ;
set Cs[55]:=
11 1 4 2 5 9 ;
set Cs[56]:=
3 8 9 7 4 11 ;
set Cs[57]:=
9 5 2 10 6 ;
set Cs[58]:=
5 2 10 1 9 ;
set Cs[59]:=
8 2 1 4 10 5 9 ;
set Cs[60]:=
10 9 4 7 3 5 ;
set Cs[61]:=
1 6 11 10 8 ;
set Cs[62]:=
3 5 6 4 11 1 ;
set Cs[63]:=
1 11 5 2 3 12 ;
set Cs[64]:=
3 12 10 6 2 5 11 ;
set Cs[65]:=
8 1 12 11 4 10 7 ;
set Cs[66]:=
12 10 9 1 3 2 6 ;
set Cs[67]:=
10 6 5 2 1 3 9 ;
set Cs[68]:=
10 2 9 4 12 5 1 ;
set Cs[69]:=
10 1 3 9 6 5 12 ;
set Cs[70]:=
10 1 12 11 5 ;
set Cs[71]:=
5 8 1 6 10 2 ;
set Cs[72]:=
5 2 9 10 8 7 ;
set Cs[73]:=
2 5 11 10 4 ;
set Cs[74]:=
12 2 1 3 4 ;
set Cs[75]:=
1 2 10 7 12 8 11 ;
set Cs[76]:=
6 11 10 1 3 ;
set Cs[77]:=
7 1 5 10 3 11 ;
set Cs[78]:=
10 11 2 8 1 9 6 ;
set Cs[79]:=
6 8 9 11 1 ;
set Cs[80]:=
4 10 12 6 1 11 ;
set Cs[81]:=
6 12 10 9 5 2 3 ;
set Cs[82]:=
5 10 1 9 2 ;
set Cs[83]:=
2 1 4 5 11 6 3 ;
set Cs[84]:=
2 5 12 1 10 ;

set Ra[1]:=
1 2 3 4 5 ;
set Ra[2]:=
1 2 3 4 5 ;
set Ra[3]:=
1 2 3 4 5 ;
set Ra[4]:=
1 2 3 4 5 ;
set Ra[5]:=
1 2 3 4 5 ;
set Ra[6]:=
1 2 3 4 5 ;
set Ra[7]:=
1 2 3 4 5 ;
set Ra[8]:=
1 2 3 4 5 ;
set Ra[9]:=
1 2 3 4 5 ;
set Ra[10]:=
1 2 3 4 5 ;
set Ra[11]:=
1 2 3 4 5 ;
set Ra[12]:=
1 2 3 4 5 ;
set Ra[13]:=
1 2 3 4 5 ;
set Ra[14]:=
1 2 3 4 5 ;
set Ra[15]:=
1 2 3 4 5 ;
set Ra[16]:=
1 2 3 4 5 ;
set Ra[17]:=
1 2 3 4 5 ;
set Ra[18]:=
1 2 3 4 5 ;
set Ra[19]:=
1 2 3 4 5 ;
set Ra[20]:=
1 2 3 4 5 ;
set Ra[21]:=
1 2 3 4 5 ;
set Ra[22]:=
1 2 3 4 5 ;
set Ra[23]:=
1 2 3 4 5 ;
set Ra[24]:=
1 2 3 4 5 ;

set Ts[1]:=
1_1_2 2_7_8 2_5_6 ;
set Ts[2]:=
1_3_4 2_1_2 1_1_2 ;
set Ts[3]:=
2_7_8 2_3_4 1_1_2 ;
set Ts[4]:=
1_7_8 2_9_10 2_7_8 ;
set Ts[5]:=
2_1_2 1_3_4 ;
set Ts[6]:=
1_5_6 2_3_4 ;
set Ts[7]:=
1_9_10 1_7_8 2_1_2 2_9_10 ;
set Ts[8]:=
1_3_4 1_1_2 ;
set Ts[9]:=
2_9_10 2_5_6 ;
set Ts[10]:=
2_7_8 2_9_10 1_7_8 1_1_2 ;
set Ts[11]:=
2_7_8 1_1_2 1_9_10 2_3_4 ;
set Ts[12]:=
1_3_4 2_9_10 1_9_10 ;
set Ts[13]:=
2_5_6 2_9_10 1_1_2 ;
set Ts[14]:=
2_1_2 2_7_8 2_3_4 ;
set Ts[15]:=
2_5_6 2_7_8 ;
set Ts[16]:=
1_5_6 2_3_4 2_9_10 2_7_8 ;
set Ts[17]:=
2_5_6 1_1_2 2_1_2 ;
set Ts[18]:=
1_3_4 2_1_2 1_9_10 ;
set Ts[19]:=
2_5_6 1_3_4 2_7_8 ;
set Ts[20]:=
2_5_6 2_1_2 2_3_4 1_7_8 ;
set Ts[21]:=
1_9_10 2_3_4 ;
set Ts[22]:=
2_7_8 1_9_10 ;
set Ts[23]:=
1_7_8 2_9_10 2_5_6 ;
set Ts[24]:=
2_9_10 2_1_2 ;
set Ts[25]:=
2_3_4 1_3_4 ;
set Ts[26]:=
2_1_2 1_5_6 1_7_8 1_9_10 ;
set Ts[27]:=
2_7_8 1_5_6 1_3_4 ;
set Ts[28]:=
2_9_10 1_5_6 ;
set Ts[29]:=
2_3_4 2_1_2 1_3_4 ;
set Ts[30]:=
2_9_10 2_5_6 ;
set Ts[31]:=
1_5_6 2_1_2 1_7_8 ;
set Ts[32]:=
2_5_6 1_1_2 1_9_10 ;
set Ts[33]:=
2_3_4 2_1_2 ;
set Ts[34]:=
1_3_4 1_5_6 2_5_6 ;
set Ts[35]:=
1_7_8 2_7_8 1_5_6 ;
set Ts[36]:=
2_9_10 1_1_2 1_3_4 2_7_8 ;
set Ts[37]:=
1_9_10 2_1_2 2_3_4 ;
set Ts[38]:=
2_9_10 2_1_2 ;
set Ts[39]:=
2_1_2 2_5_6 2_7_8 ;
set Ts[40]:=
2_3_4 1_5_6 2_5_6 1_1_2 ;
set Ts[41]:=
1_5_6 2_3_4 2_5_6 2_7_8 ;
set Ts[42]:=
1_7_8 2_3_4 ;
set Ts[43]:=
1_9_10 2_9_10 ;
set Ts[44]:=
1_5_6 2_1_2 2_9_10 1_3_4 ;
set Ts[45]:=
1_5_6 2_5_6 ;
set Ts[46]:=
2_9_10 2_3_4 2_1_2 ;
set Ts[47]:=
1_1_2 2_7_8 ;
set Ts[48]:=
1_1_2 1_5_6 2_7_8 ;
set Ts[49]:=
2_5_6 1_7_8 ;
set Ts[50]:=
1_7_8 2_9_10 ;
set Ts[51]:=
2_7_8 2_3_4 1_7_8 2_5_6 ;
set Ts[52]:=
2_7_8 2_9_10 ;
set Ts[53]:=
2_3_4 2_7_8 ;
set Ts[54]:=
1_1_2 1_7_8 ;
set Ts[55]:=
1_9_10 2_1_2 1_7_8 1_3_4 ;
set Ts[56]:=
1_1_2 2_9_10 1_3_4 2_1_2 ;
set Ts[57]:=
1_1_2 1_9_10 2_9_10 ;
set Ts[58]:=
1_5_6 2_7_8 ;
set Ts[59]:=
1_3_4 2_9_10 1_1_2 ;
set Ts[60]:=
1_9_10 1_7_8 2_9_10 2_3_4 ;
set Ts[61]:=
2_3_4 2_7_8 ;
set Ts[62]:=
1_1_2 1_3_4 ;
set Ts[63]:=
2_5_6 1_1_2 1_9_10 2_7_8 ;
set Ts[64]:=
1_9_10 1_1_2 2_3_4 ;
set Ts[65]:=
1_9_10 1_3_4 ;
set Ts[66]:=
2_5_6 2_7_8 1_1_2 1_5_6 ;
set Ts[67]:=
1_7_8 1_5_6 2_7_8 ;
set Ts[68]:=
2_5_6 1_3_4 1_9_10 ;
set Ts[69]:=
1_7_8 2_1_2 2_3_4 1_3_4 ;
set Ts[70]:=
1_5_6 2_9_10 ;
set Ts[71]:=
1_9_10 1_3_4 2_5_6 ;
set Ts[72]:=
2_5_6 2_3_4 1_5_6 1_1_2 ;
set Ts[73]:=
2_1_2 1_7_8 1_5_6 ;
set Ts[74]:=
1_7_8 2_3_4 2_9_10 ;
set Ts[75]:=
1_3_4 2_3_4 2_9_10 2_5_6 ;
set Ts[76]:=
2_7_8 2_1_2 1_5_6 1_9_10 ;
set Ts[77]:=
1_1_2 1_9_10 ;
set Ts[78]:=
1_9_10 2_3_4 ;
set Ts[79]:=
2_3_4 2_9_10 2_7_8 1_7_8 ;
set Ts[80]:=
2_5_6 2_7_8 2_9_10 ;
set Ts[81]:=
1_7_8 2_3_4 ;
set Ts[82]:=
1_7_8 2_1_2 ;
set Ts[83]:=
1_5_6 2_1_2 2_9_10 2_5_6 ;
set Ts[84]:=
2_5_6 1_5_6 2_3_4 1_9_10 ;

param rho:=
1 84
2 84
3 84
4 84
5 84
;

param sigma_class:=
1 84
2 84
3 84
4 84
5 84
6 84
7 84
8 84
9 84
10 84
11 84
12 84
;

param kmin:=
1 3
2 3
3 3
4 3
5 3
6 3
7 3
8 3
9 3
10 2
11 3
12 3
13 3
14 3
15 2
16 2
17 3
18 3
19 2
20 3
21 3
22 3
23 3
24 2
25 3
26 2
27 3
28 3
29 3
30 3
31 3
32 3
33 3
34 3
35 3
36 3
37 2
38 3
39 3
40 3
41 3
42 2
43 3
44 2
45 2
46 3
47 2
48 2
49 3
50 3
51 3
52 3
53 2
54 2
55 3
56 3
57 2
58 2
59 3
60 3
61 2
62 3
63 3
64 3
65 3
66 3
67 3
68 3
69 3
70 2
71 3
72 3
73 2
74 2
75 3
76 2
77 3
78 3
79 2
80 3
81 3
82 2
83 3
84 2
;

param kmax:=
1 6
2 7
3 6
4 6
5 7
6 7
7 6
8 7
9 7
10 5
11 7
12 6
13 7
14 7
15 5
16 5
17 6
18 6
19 5
20 7
21 7
22 7
23 7
24 5
25 7
26 5
27 6
28 6
29 7
30 7
31 7
32 6
33 7
34 6
35 7
36 7
37 5
38 7
39 6
40 7
41 7
42 5
43 7
44 5
45 5
46 7
47 5
48 5
49 6
50 6
51 7
52 6
53 5
54 5
55 6
56 6
57 5
58 5
59 7
60 6
61 5
62 6
63 6
64 7
65 7
66 7
67 7
68 7
69 7
70 5
71 6
72 6
73 5
74 5
75 7
76 5
77 6
78 7
79 5
80 6
81 7
82 5
83 7
84 5
;

